40973 37948 
40855 38168 
40968 38067 
40834 38493 
40678 38886 
40829 38612 
40173 39222 
40452 39166 
40603 38892 
40142 39311 
41204 36715 
40135 39395 
39955 39588 
40121 39411 
40050 39420 
40023 39436 
39900 39631 
40171 39261 
39625 39818 
41223 36413 
41072 37739 
41199 36834 
41093 37335 
39584 39958 
39691 39716 
39557 39974 
41218 36532 
41091 37437 
38546 40589 
39195 40103 
39735 39684 
39708 39700 
38248 40963 
38925 40522 
38221 40979 
37757 41063 
38745 40541 
38428 40770 
37860 41030 
37906 40992 
37477 41262 
39422 40100 
39105 40329 
37730 41079 
38718 40557 
38401 40786 
37833 41046 
37879 41008 
37364 41280 
38316 40808 
39147 40287 
38946 40344 
37851 41035 
37089 41329 
37616 41092 
37545 41107 
37824 41051 
38465 40680 
38517 40611 
37748 41068 
37926 40988 
36532 41547 
37283 41295 
36635 41514 
36977 41367 
37256 41311 
36792 41395 
36765 41411 
36475 41624 
37505 41183 
37043 41364 
